! QPL9547 Noise Parameter File (0.3 - 1.6 GHz)
! Rn has been normalized (Rn/50)
# GHz S MA R 50
!
! --- Dummy S-parameters (S11=0, S21=1, S12=0, S22=0) ---
! Freq   S11:mag  S11:ang  S21:mag  S21:ang  S12:mag  S12:ang  S22:mag  S22:ang
0.3      0.00     0.00     1.00     0.00     0.00     0.00     0.00     0.00
0.4      0.00     0.00     1.00     0.00     0.00     0.00     0.00     0.00
0.5      0.00     0.00     1.00     0.00     0.00     0.00     0.00     0.00
0.6      0.00     0.00     1.00     0.00     0.00     0.00     0.00     0.00
0.7      0.00     0.00     1.00     0.00     0.00     0.00     0.00     0.00
0.8      0.00     0.00     1.00     0.00     0.00     0.00     0.00     0.00
0.9      0.00     0.00     1.00     0.00     0.00     0.00     0.00     0.00
1.0      0.00     0.00     1.00     0.00     0.00     0.00     0.00     0.00
1.1      0.00     0.00     1.00     0.00     0.00     0.00     0.00     0.00
1.2      0.00     0.00     1.00     0.00     0.00     0.00     0.00     0.00
1.3      0.00     0.00     1.00     0.00     0.00     0.00     0.00     0.00
1.4      0.00     0.00     1.00     0.00     0.00     0.00     0.00     0.00
1.6      0.00     0.00     1.00     0.00     0.00     0.00     0.00     0.00
!
! --- Noise Parameters ---
! Freq   NFmin    Mag      Ang      Rn/50
0.3      0.18     0.19     -3.0     0.0526
0.4      0.17     0.19     2.0      0.0490
0.5      0.17     0.20     7.0      0.0454
0.6      0.16     0.20     12.0     0.0418
0.7      0.15     0.21     17.0     0.0382
0.8      0.17     0.25     27.0     0.0398
0.9      0.23     0.21     23.0     0.0412
1.0      0.23     0.18     32.0     0.0402
1.1      0.22     0.17     39.0     0.0386
1.2      0.21     0.15     36.0     0.0394
1.3      0.20     0.15     38.0     0.0412
1.4      0.17     0.15     59.0     0.0410
1.6      0.17     0.13     62.0     0.0366
